%chk=buta01.chk
# freq opt b3lyp/6-31g* pop=full

Title Card Required

0 1
 C                  1.10712900   -1.48465400    0.00000000
 H                  2.09998900   -1.03986800    0.00000000
 H                  1.05995700   -2.56940600    0.00000000
 C                 -0.00001100   -0.72877000    0.00000000
 H                 -0.97811200   -1.21104800    0.00000000
 C                  0.00000000    0.72875800    0.00000000
 H                  0.97811000    1.21101800    0.00000000
 C                 -1.10712300    1.48466300    0.00000000
 H                 -2.09999700    1.03991100    0.00000000
 H                 -1.05991600    2.56941400    0.00000000

 1 2 1.0 3 1.0 4 2.0
 2
 3
 4 5 1.0 6 1.0
 5
 6 7 1.0 8 2.0
 7
 8 9 1.0 10 1.0
 9
 10

